N = 37;
MinK = 5;
Capacity = 100;

X = array1d(0..37, [69, 3, 71, 1, 11, 87, 37, 87, 35, 55, 41, 93, 11, 75, 75, 97, 15, 63, 47, 45, 89, 45, 95, 19, 71, 27, 17, 93, 59, 35, 33, 61, 89, 33, 37, 21, 67, 61]);
Y = array1d(0..37, [63, 35, 79, 47, 15, 23, 33, 29, 81, 71, 51, 9, 49, 89, 69, 95, 13, 95, 41, 41, 43, 59, 23, 83, 69, 19, 57, 15, 29, 39, 51, 21, 53, 85, 37, 91, 95, 15]);

Demands = [12, 5, 8, 12, 18, 12, 11, 19, 23, 8, 25, 1, 5, 17, 13, 9, 13, 19, 5, 26, 9, 20, 21, 8, 12, 13, 12, 4, 19, 25, 7, 3, 2, 24, 13, 14, 14];
